100 98213

 567 434
724 548
419 63
382 90
99 830
524 60
515 170
469 796
741 2
833 283
751 585
144 596
623 778
81 506
695 510
382 726
133 499
863 609
615 898
355 402
31 386
538 4
924 614
597 30
972 505
137 805
569 550
799 270
526 787
92 270
583 734
612 611
729 170
762 906
771 201
664 990
216 8
405 264
777 200
954 14
79 733
536 694
313 793
226 257
506 445
607 660
10 440
781 698
820 634
966 115
181 782
595 721
427 656
335 156
566 268
783 394
24 280
970 228
810 806
752 639
761 566
390 226
752 919
387 192
899 795
178 967
293 728
552 993
320 652
425 218
493 204
857 325
524 8
363 682
248 269
409 816
516 360
747 480
122 966
222 243
380 722
361 756
392 221
794 501
325 351
502 772
624 623
233 476
719 780
548 236
447 754
810 866
244 879
884 784
562 409
610 982
876 380
818 639
602 162
754 981
